(set-logic QF_S)
(declare-fun V11 () String )
(declare-fun V10 () String )
(declare-fun V8 () String )
(declare-fun V4 () String )
(declare-fun V6 () String )
(declare-fun V5 () String )
(declare-fun V9 () String )
(declare-fun V7 () String )
(assert (= (str.++ (str.++ V7 V8 ) V9 ) (str.++ (str.++ V4 V5 ) V6 ) ) )
(assert (= (str.++ (str.++ V7 V8 ) V9 ) (str.++ (str.++ V10 " " ) V11 ) ) )
( check-sat )
